5
21
56
40	23
1	4	5	11	7	4	7	3	5	3	
2	2	5	7	13	4	
3	4	7	9	8	4	9	3	11	2	
4	1	11	6	
5	3	7	7	21	3	7	2	
6	5	6	6	6	6	5	6	23	2	22	2	
7	2	12	5	9	4	
8	3	4	7	6	6	5	2	
9	1	5	11	
10	2	22	4	11	3	
11	1	9	6	
12	5	5	11	10	5	4	4	11	3	6	2	
13	3	7	10	23	3	7	3	
14	4	19	3	11	3	6	3	8	2	
15	2	6	5	6	2	
16	3	8	9	9	4	6	3	
17	5	10	6	7	6	14	3	13	3	4	3	
18	3	7	6	22	3	19	2	
19	1	8	8	
20	1	7	6	
21	1	7	4	
